10 
12 
7 
6 
8 
6 
9 
3 
11 
15 
8 
9 
7 
2 
11 
10 
9 
6 
8 
9 
8 
7 
11 
7 
6 
5 
3 
9 
10 
10 
5 
7 
8 
7 
5 
7 
10 
9 
11 
8 
5 
10 
8 
13 
7 
2 
8 
7 
8 
6 
6 
10 
7 
6 
5 
7 
13 
13 
9 
6 
10 
8 
5 
9 
4 
9 
7 
7 
4 
8 
9 
8 
6 
5 
13 
13 
5 
8 
9 
10 
3 
8 
6 
6 
12 
5 
7 
6 
8 
6 
8 
14 
12 
6 
10 
6 
6 
7 
10 
11 
